   9
          7          1          7
          7          8         14
          3         15         17
          1         18         18
          1         19         19
          3         20         22
          3         23         25
          1         26         26
          1         27         27
